(assert 
(let ((.cse2 (- 1))) (let ((.cse0 (<= .cse2 .cse2))) (let ((.cse1 (and (<= x_17_2 .cse2) .cse0))) (or (and (<= x_69_2 0) (<= 0 x_69_2) .cse0) (and (or (and (or (<= 0 x_17_3) (<= x_17_3 (- 2))) .cse0) .cse1) .cse0) .cse1))))
)

